c Created with the Wolfram Language : www.wolfram.com
c 
p edge 80 433
e 2 4
e 3 5
e 3 9
e 6 11
e 1 12
e 2 12
e 4 13
e 11 14
e 14 15
e 4 16
e 13 16
e 4 17
e 16 17
e 4 18
e 6 18
e 1 19
e 4 19
e 11 19
e 15 19
e 7 20
e 8 20
e 16 20
e 2 21
e 18 21
e 1 22
e 2 22
e 5 22
e 13 22
e 18 22
e 21 22
e 11 23
e 16 23
e 17 23
e 20 23
e 1 24
e 5 24
e 8 24
e 9 24
e 23 25
e 15 26
e 1 27
e 20 27
e 22 27
e 26 27
e 13 28
e 6 29
e 14 29
e 17 29
e 19 29
e 22 29
e 25 29
e 8 30
e 11 30
e 17 30
e 22 30
e 27 30
e 29 30
e 7 31
e 19 31
e 20 31
e 26 31
e 30 31
e 8 32
e 10 32
e 12 32
e 18 32
e 1 33
e 7 33
e 24 33
e 9 34
e 11 34
e 26 34
e 31 34
e 11 35
e 23 35
e 5 36
e 9 36
e 17 36
e 24 36
e 27 36
e 29 36
e 31 36
e 35 36
e 2 37
e 4 37
e 6 37
e 9 37
e 11 37
e 17 37
e 29 37
e 10 38
e 13 38
e 16 38
e 17 38
e 24 38
e 2 39
e 4 39
e 7 39
e 10 39
e 11 39
e 19 39
e 21 39
e 27 39
e 4 40
e 21 40
e 25 40
e 34 40
e 37 40
e 4 41
e 20 41
e 36 41
e 38 41
e 5 42
e 23 42
e 28 42
e 32 42
e 39 42
e 2 43
e 3 43
e 9 43
e 14 43
e 17 43
e 31 43
e 35 43
e 38 43
e 41 43
e 42 43
e 2 44
e 4 44
e 5 44
e 9 44
e 11 44
e 19 44
e 33 44
e 4 45
e 10 45
e 20 45
e 22 45
e 35 45
e 41 45
e 5 46
e 8 46
e 21 46
e 24 46
e 3 47
e 7 47
e 14 47
e 17 47
e 28 47
e 39 47
e 2 48
e 7 48
e 18 48
e 35 48
e 40 48
e 44 48
e 16 49
e 29 49
e 31 49
e 34 49
e 45 49
e 3 50
e 8 50
e 9 50
e 19 50
e 24 50
e 25 50
e 29 50
e 33 50
e 37 50
e 13 51
e 14 51
e 26 51
e 29 51
e 33 51
e 37 51
e 42 51
e 43 51
e 45 51
e 50 51
e 16 52
e 29 52
e 31 52
e 37 52
e 42 52
e 44 52
e 47 52
e 50 52
e 51 52
e 6 53
e 9 53
e 18 53
e 20 53
e 22 53
e 23 53
e 26 53
e 30 53
e 35 53
e 38 53
e 40 53
e 41 53
e 50 53
e 1 54
e 2 54
e 5 54
e 6 54
e 7 54
e 8 54
e 10 54
e 17 54
e 42 54
e 51 54
e 53 54
e 9 55
e 23 55
e 26 55
e 27 55
e 48 55
e 51 55
e 52 55
e 53 55
e 1 56
e 3 56
e 8 56
e 10 56
e 20 56
e 23 56
e 24 56
e 26 56
e 32 56
e 35 56
e 11 57
e 12 57
e 23 57
e 34 57
e 44 57
e 46 57
e 53 57
e 55 57
e 56 57
e 6 58
e 8 58
e 16 58
e 22 58
e 31 58
e 33 58
e 42 58
e 48 58
e 56 58
e 39 59
e 48 59
e 52 59
e 54 59
e 6 60
e 15 60
e 23 60
e 31 60
e 38 60
e 41 60
e 47 60
e 48 60
e 50 60
e 28 61
e 29 61
e 32 61
e 35 61
e 47 61
e 49 61
e 6 62
e 7 62
e 11 62
e 26 62
e 48 62
e 50 62
e 55 62
e 59 62
e 60 62
e 1 63
e 11 63
e 17 63
e 25 63
e 28 63
e 30 63
e 36 63
e 1 64
e 32 64
e 36 64
e 59 64
e 3 65
e 10 65
e 22 65
e 23 65
e 58 65
e 62 65
e 1 66
e 7 66
e 18 66
e 22 66
e 52 66
e 56 66
e 57 66
e 5 67
e 47 67
e 52 67
e 57 67
e 62 67
e 65 67
e 66 67
e 5 68
e 11 68
e 18 68
e 28 68
e 30 68
e 40 68
e 43 68
e 52 68
e 55 68
e 60 68
e 17 69
e 20 69
e 25 69
e 26 69
e 49 69
e 50 69
e 54 69
e 63 69
e 65 69
e 2 70
e 3 70
e 6 70
e 13 70
e 16 70
e 20 70
e 32 70
e 37 70
e 43 70
e 62 70
e 64 70
e 68 70
e 12 71
e 27 71
e 37 71
e 41 71
e 43 71
e 48 71
e 49 71
e 51 71
e 7 72
e 12 72
e 45 72
e 14 73
e 23 73
e 24 73
e 27 73
e 32 73
e 35 73
e 42 73
e 43 73
e 44 73
e 46 73
e 51 73
e 53 73
e 54 73
e 57 73
e 62 73
e 67 73
e 71 73
e 12 74
e 21 74
e 26 74
e 27 74
e 44 74
e 49 74
e 53 74
e 54 74
e 59 74
e 63 74
e 7 75
e 10 75
e 21 75
e 24 75
e 29 75
e 36 75
e 50 75
e 62 75
e 63 75
e 1 76
e 8 76
e 17 76
e 30 76
e 32 76
e 34 76
e 36 76
e 38 76
e 42 76
e 52 76
e 53 76
e 58 76
e 62 76
e 70 76
e 72 76
e 14 77
e 15 77
e 20 77
e 25 77
e 29 77
e 30 77
e 45 77
e 55 77
e 67 77
e 74 77
e 2 78
e 27 78
e 35 78
e 52 78
e 54 78
e 63 78
e 69 78
e 71 78
e 75 78
e 5 79
e 19 79
e 34 79
e 41 79
e 50 79
e 56 79
e 62 79
e 10 80
e 14 80
e 20 80
e 37 80
e 60 80
e 61 80
